presolving:
(round 1, fast)       400 del vars, 0 del conss, 0 add conss, 0 chg bounds, 0 chg sides, 0 chg coeffs, 0 upgd conss, 0 impls, 80600 clqs
(round 2, exhaustive) 400 del vars, 0 del conss, 0 add conss, 0 chg bounds, 0 chg sides, 0 chg coeffs, 80600 upgd conss, 0 impls, 80600 clqs
   (6.0s) probing: 51/159600 (0.0%) - 0 fixings, 0 aggregations, 0 implications, 0 bound changes
   (6.0s) probing aborted: 50/50 successive totally useless probings
   Deactivated symmetry handling methods, since SCIP was built without symmetry detector (SYM=none).
presolving (3 rounds: 3 fast, 2 medium, 2 exhaustive):
 400 deleted vars, 0 deleted constraints, 0 added constraints, 0 tightened bounds, 0 added holes, 0 changed sides, 0 changed coefficients
 0 implications, 80600 cliques
presolved problem has 159600 variables (159600 bin, 0 int, 0 impl, 0 cont) and 80600 constraints
  80600 constraints of type <setppc>
Presolving Time: 5.00

 time | node  | left  |LP iter|LP it/n|mem/heur|mdpt |vars |cons |rows |cuts |sepa|confs|strbr|  dualbound   | primalbound  |  gap   | compl. 
p 7.0s|     1 |     0 |     0 |     - |  clique|   0 | 159k|  80k| 800 |   0 |  0 |   0 |   0 | 0.000000e+00 | 1.811961e+04 |    Inf | unknown
 15.0s|     1 |     0 |   664 |     - |  1109M |   0 | 159k|  80k| 800 |   0 |  0 |  24 |   0 | 1.235582e+04 | 1.811961e+04 |  46.65%| unknown
 16.0s|     1 |     0 |  1086 |     - |  1109M |   0 | 159k|  80k| 949 | 149 |  1 |  24 |   0 | 1.433812e+04 | 1.811961e+04 |  26.37%| unknown
 19.0s|     1 |     0 |  1194 |     - |  1141M |   0 | 159k|  80k| 985 | 185 |  2 |  24 |   0 | 1.453133e+04 | 1.811961e+04 |  24.69%| unknown
 21.0s|     1 |     0 |  1198 |     - |  1155M |   0 | 159k|  80k| 987 | 187 |  3 |  24 |   0 | 1.454390e+04 | 1.811961e+04 |  24.59%| unknown
 24.0s|     1 |     0 |  1213 |     - |  1155M |   0 | 159k|  80k| 999 | 199 |  4 |  24 |   0 | 1.454390e+04 | 1.811961e+04 |  24.59%| unknown
 27.0s|     1 |     0 |  1259 |     - |  1164M |   0 | 159k|  80k|1013 | 213 |  6 |  24 |   0 | 1.458693e+04 | 1.811961e+04 |  24.22%| unknown
 29.0s|     1 |     0 |  1289 |     - |  1177M |   0 | 159k|  80k|1024 | 224 |  7 |  24 |   0 | 1.459797e+04 | 1.811961e+04 |  24.12%| unknown
 32.0s|     1 |     0 |  1313 |     - |  1185M |   0 | 159k|  80k|1031 | 231 |  8 |  24 |   0 | 1.460970e+04 | 1.811961e+04 |  24.02%| unknown
 34.0s|     1 |     0 |  1324 |     - |  1203M |   0 | 159k|  80k|1039 | 239 |  9 |  24 |   0 | 1.461118e+04 | 1.811961e+04 |  24.01%| unknown
 36.0s|     1 |     0 |  1358 |     - |  1215M |   0 | 159k|  80k|1052 | 252 | 10 |  24 |   0 | 1.462862e+04 | 1.811961e+04 |  23.86%| unknown
 38.0s|     1 |     0 |  1363 |     - |  1223M |   0 | 159k|  80k|1061 | 261 | 11 |  24 |   0 | 1.462878e+04 | 1.811961e+04 |  23.86%| unknown
 40.0s|     1 |     0 |  1401 |     - |  1223M |   0 | 159k|  80k|1043 | 284 | 12 |  24 |   0 | 1.464390e+04 | 1.811961e+04 |  23.73%| unknown
 41.0s|     1 |     0 |  1417 |     - |  1223M |   0 | 159k|  80k|1053 | 294 | 13 |  24 |   0 | 1.464659e+04 | 1.811961e+04 |  23.71%| unknown
 41.0s|     1 |     0 |  1421 |     - |  1223M |   0 | 159k|  80k|1055 | 296 | 14 |  24 |   0 | 1.464686e+04 | 1.811961e+04 |  23.71%| unknown
 time | node  | left  |LP iter|LP it/n|mem/heur|mdpt |vars |cons |rows |cuts |sepa|confs|strbr|  dualbound   | primalbound  |  gap   | compl. 
 42.0s|     1 |     0 |  1449 |     - |  1223M |   0 | 159k|  80k|1060 | 301 | 15 |  24 |   0 | 1.464769e+04 | 1.811961e+04 |  23.70%| unknown
 43.0s|     1 |     0 |  1475 |     - |  1223M |   0 | 159k|  80k|1066 | 307 | 16 |  24 |   0 | 1.465095e+04 | 1.811961e+04 |  23.68%| unknown
 44.0s|     1 |     0 |  1478 |     - |  1224M |   0 | 159k|  80k|1068 | 309 | 17 |  24 |   0 | 1.465095e+04 | 1.811961e+04 |  23.68%| unknown
 45.0s|     1 |     0 |  1493 |     - |  1224M |   0 | 159k|  80k|1046 | 312 | 18 |  24 |   0 | 1.465182e+04 | 1.811961e+04 |  23.67%| unknown
 46.0s|     1 |     0 |  1499 |     - |  1224M |   0 | 159k|  80k|1051 | 317 | 19 |  24 |   0 | 1.465274e+04 | 1.811961e+04 |  23.66%| unknown
 47.0s|     1 |     0 |  1502 |     - |  1224M |   0 | 159k|  80k|1053 | 319 | 20 |  24 |   0 | 1.465274e+04 | 1.811961e+04 |  23.66%| unknown
 48.0s|     1 |     0 |  1515 |     - |  1224M |   0 | 159k|  80k|1055 | 321 | 21 |  24 |   0 | 1.465302e+04 | 1.811961e+04 |  23.66%| unknown
 48.0s|     1 |     0 |  1545 |     - |  1224M |   0 | 159k|  80k|1056 | 322 | 22 |  24 |   0 | 1.465392e+04 | 1.811961e+04 |  23.65%| unknown
 49.0s|     1 |     0 |  1559 |     - |  1224M |   0 | 159k|  80k|1060 | 326 | 23 |  24 |   0 | 1.465719e+04 | 1.811961e+04 |  23.62%| unknown
d51.0s|     1 |     0 |  1629 |     - |farkasdi|   0 | 159k|  80k|1060 |   0 | 25 |  24 |   0 | 1.465719e+04 | 1.467214e+04 |   0.10%| unknown
(run 1, node 1) restarting after 129942 global fixings of integer variables

(restart) converted 159 cuts from the global cut pool into linear constraints

presolving:
(round 1, fast)       129942 del vars, 65274 del conss, 0 add conss, 0 chg bounds, 0 chg sides, 305 chg coeffs, 0 upgd conss, 0 impls, 15327 clqs
(round 2, exhaustive) 129942 del vars, 65274 del conss, 0 add conss, 0 chg bounds, 0 chg sides, 305 chg coeffs, 159 upgd conss, 0 impls, 15327 clqs
(round 3, fast)       129942 del vars, 65320 del conss, 0 add conss, 0 chg bounds, 0 chg sides, 305 chg coeffs, 159 upgd conss, 0 impls, 15327 clqs
presolving (4 rounds: 4 fast, 2 medium, 2 exhaustive):
 129942 deleted vars, 65320 deleted constraints, 0 added constraints, 0 tightened bounds, 0 added holes, 0 changed sides, 306 changed coefficients
 0 implications, 15327 cliques
presolved problem has 29658 variables (29658 bin, 0 int, 0 impl, 0 cont) and 15444 constraints
    110 constraints of type <knapsack>
  15327 constraints of type <setppc>
      7 constraints of type <logicor>
Presolving Time: 6.00
transformed 1/2 original solutions to the transformed problem space

 time | node  | left  |LP iter|LP it/n|mem/heur|mdpt |vars |cons |rows |cuts |sepa|confs|strbr|  dualbound   | primalbound  |  gap   | compl. 
 58.0s|     1 |     0 |  4129 |     - |  1232M |   0 |  29k|  15k| 959 |   0 |  0 | 129k|   0 | 1.465719e+04 | 1.467214e+04 |   0.10%| unknown
 58.0s|     1 |     0 |  4678 |     - |  1236M |   0 |  29k|  15k|1110 | 151 |  1 | 129k|   0 | 1.465719e+04 | 1.467214e+04 |   0.10%| unknown
 58.0s|     1 |     0 |  4678 |     - |  1236M |   0 |  29k|  15k|1110 | 151 |  1 | 129k|   0 | 1.465719e+04 | 1.467214e+04 |   0.10%| unknown
 59.0s|     1 |     0 |  4806 |     - |  1235M |   0 |  29k|3226 |1137 | 178 |  2 | 129k|   0 | 1.466051e+04 | 1.467214e+04 |   0.08%| unknown
 59.0s|     1 |     0 |  4806 |     - |  1235M |   0 |  29k|3227 |1136 | 178 |  2 | 129k|   0 | 1.466051e+04 | 1.467214e+04 |   0.08%| unknown
 59.0s|     1 |     0 |  4833 |     - |  1235M |   0 |  29k|1801 |1142 | 184 |  3 | 129k|   0 | 1.466559e+04 | 1.467214e+04 |   0.04%| unknown
 59.0s|     1 |     0 |  4833 |     - |  1235M |   0 |  29k|1802 |1141 | 184 |  3 | 129k|   0 | 1.466559e+04 | 1.467214e+04 |   0.04%| unknown
 59.0s|     1 |     0 |  4842 |     - |  1236M |   0 |  29k|1664 |1150 | 193 |  4 | 129k|   0 | 1.466631e+04 | 1.467214e+04 |   0.04%| unknown
 59.0s|     1 |     0 |  4842 |     - |  1236M |   0 |  29k|1665 |1150 | 193 |  4 | 129k|   0 | 1.466631e+04 | 1.467214e+04 |   0.04%| unknown
 60.0s|     1 |     0 |  4849 |     - |  1236M |   0 |  29k|1650 |1152 | 195 |  5 | 129k|   0 | 1.466723e+04 | 1.467214e+04 |   0.03%| unknown
 60.0s|     1 |     0 |  4849 |     - |  1236M |   0 |  29k|1651 |1152 | 195 |  5 | 129k|   0 | 1.466723e+04 | 1.467214e+04 |   0.03%| unknown
 60.0s|     1 |     0 |  4867 |     - |  1236M |   0 |  29k|1626 |1160 | 203 |  6 | 129k|   0 | 1.466874e+04 | 1.467214e+04 |   0.02%| unknown
 60.0s|     1 |     0 |  4867 |     - |  1236M |   0 |  29k|1627 |1158 | 203 |  6 | 129k|   0 | 1.466874e+04 | 1.467214e+04 |   0.02%| unknown
 60.0s|     1 |     0 |  4877 |     - |  1236M |   0 |  29k|1576 |1162 | 207 |  7 | 129k|   0 | 1.466885e+04 | 1.467214e+04 |   0.02%| unknown
 60.0s|     1 |     0 |  4877 |     - |  1236M |   0 |  29k|1578 |1162 | 207 |  7 | 129k|   0 | 1.466885e+04 | 1.467214e+04 |   0.02%| unknown
 time | node  | left  |LP iter|LP it/n|mem/heur|mdpt |vars |cons |rows |cuts |sepa|confs|strbr|  dualbound   | primalbound  |  gap   | compl. 
 61.0s|     1 |     0 |  4880 |     - |  1237M |   0 |  29k|1574 |1164 | 209 |  8 | 129k|   0 | 1.466885e+04 | 1.467214e+04 |   0.02%| unknown
 61.0s|     1 |     0 |  4881 |     - |  1237M |   0 |  29k|1577 |1165 | 210 |  9 | 129k|   0 | 1.466885e+04 | 1.467214e+04 |   0.02%| unknown
 61.0s|     1 |     0 |  4885 |     - |  1237M |   0 |  29k|1578 |1169 | 214 | 10 | 129k|   0 | 1.466885e+04 | 1.467214e+04 |   0.02%| unknown
 62.0s|     1 |     0 |  4896 |     - |  1237M |   0 |  29k|1579 |1048 | 218 | 11 | 129k|   0 | 1.466935e+04 | 1.467214e+04 |   0.02%| unknown
 62.0s|     1 |     0 |  4896 |     - |  1237M |   0 |  29k|1580 |1048 | 218 | 11 | 129k|   0 | 1.466935e+04 | 1.467214e+04 |   0.02%| unknown
 62.0s|     1 |     0 |  4916 |     - |  1237M |   0 |  29k|1567 |1050 | 220 | 12 | 129k|   0 | 1.466982e+04 | 1.467214e+04 |   0.02%| unknown
 62.0s|     1 |     0 |  4916 |     - |  1237M |   0 |  29k|1568 |1050 | 220 | 12 | 129k|   0 | 1.466982e+04 | 1.467214e+04 |   0.02%| unknown
 62.0s|     1 |     0 |  4918 |     - |  1237M |   0 |  29k|1559 |1052 | 222 | 13 | 129k|   0 | 1.466982e+04 | 1.467214e+04 |   0.02%| unknown
 62.0s|     1 |     0 |  4931 |     - |  1237M |   0 |  29k|1560 |1055 | 225 | 14 | 129k|   0 | 1.467038e+04 | 1.467214e+04 |   0.01%| unknown
 63.0s|     1 |     0 |  4931 |     - |  1237M |   0 |  29k|1561 |1055 | 225 | 14 | 129k|   0 | 1.467038e+04 | 1.467214e+04 |   0.01%| unknown
 63.0s|     1 |     0 |  4938 |     - |  1237M |   0 |  29k|1546 |1058 | 228 | 15 | 129k|   0 | 1.467050e+04 | 1.467214e+04 |   0.01%| unknown
 63.0s|     1 |     0 |  4938 |     - |  1237M |   0 |  29k|1547 |1058 | 228 | 15 | 129k|   0 | 1.467050e+04 | 1.467214e+04 |   0.01%| unknown
 63.0s|     1 |     0 |  4945 |     - |  1237M |   0 |  29k|1545 |1061 | 231 | 16 | 129k|   0 | 1.467057e+04 | 1.467214e+04 |   0.01%| unknown
 63.0s|     1 |     0 |  4945 |     - |  1237M |   0 |  29k|1546 |1061 | 231 | 16 | 129k|   0 | 1.467057e+04 | 1.467214e+04 |   0.01%| unknown
(run 2, node 1) restarting after 28417 global fixings of integer variables

(restart) converted 171 cuts from the global cut pool into linear constraints

presolving:
(round 1, fast)       28548 del vars, 152 del conss, 0 add conss, 0 chg bounds, 0 chg sides, 1549 chg coeffs, 0 upgd conss, 0 impls, 1275 clqs
(round 2, fast)       28548 del vars, 157 del conss, 4 add conss, 0 chg bounds, 0 chg sides, 1549 chg coeffs, 0 upgd conss, 0 impls, 1276 clqs
(round 3, medium)     28724 del vars, 261 del conss, 17 add conss, 0 chg bounds, 14 chg sides, 1578 chg coeffs, 0 upgd conss, 0 impls, 966 clqs
(round 4, fast)       28799 del vars, 572 del conss, 22 add conss, 1 chg bounds, 16 chg sides, 1602 chg coeffs, 0 upgd conss, 0 impls, 930 clqs
(round 5, fast)       28811 del vars, 587 del conss, 26 add conss, 1 chg bounds, 16 chg sides, 1602 chg coeffs, 0 upgd conss, 0 impls, 928 clqs
(round 6, fast)       28812 del vars, 588 del conss, 26 add conss, 1 chg bounds, 16 chg sides, 1603 chg coeffs, 0 upgd conss, 0 impls, 928 clqs
(round 7, fast)       28813 del vars, 588 del conss, 26 add conss, 1 chg bounds, 16 chg sides, 1603 chg coeffs, 0 upgd conss, 0 impls, 928 clqs
(round 8, medium)     28813 del vars, 595 del conss, 33 add conss, 1 chg bounds, 24 chg sides, 1623 chg coeffs, 0 upgd conss, 0 impls, 930 clqs
(round 9, fast)       28813 del vars, 597 del conss, 34 add conss, 1 chg bounds, 24 chg sides, 1623 chg coeffs, 0 upgd conss, 0 impls, 930 clqs
(round 10, exhaustive) 28813 del vars, 599 del conss, 34 add conss, 1 chg bounds, 24 chg sides, 1623 chg coeffs, 0 upgd conss, 0 impls, 930 clqs
(round 11, exhaustive) 28813 del vars, 599 del conss, 34 add conss, 1 chg bounds, 24 chg sides, 1631 chg coeffs, 0 upgd conss, 0 impls, 930 clqs
(round 12, exhaustive) 28814 del vars, 623 del conss, 34 add conss, 1 chg bounds, 24 chg sides, 1633 chg coeffs, 0 upgd conss, 0 impls, 929 clqs
(round 13, fast)       28815 del vars, 624 del conss, 34 add conss, 1 chg bounds, 24 chg sides, 1633 chg coeffs, 0 upgd conss, 0 impls, 928 clqs
(round 14, medium)     28816 del vars, 625 del conss, 34 add conss, 1 chg bounds, 24 chg sides, 1633 chg coeffs, 0 upgd conss, 0 impls, 926 clqs
(round 15, exhaustive) 28816 del vars, 629 del conss, 34 add conss, 1 chg bounds, 27 chg sides, 1634 chg coeffs, 0 upgd conss, 0 impls, 926 clqs
(round 16, exhaustive) 28816 del vars, 629 del conss, 34 add conss, 1 chg bounds, 27 chg sides, 1635 chg coeffs, 116 upgd conss, 0 impls, 926 clqs
(round 17, fast)       28816 del vars, 683 del conss, 34 add conss, 1 chg bounds, 27 chg sides, 1635 chg coeffs, 116 upgd conss, 0 impls, 927 clqs
(round 18, medium)     28816 del vars, 683 del conss, 34 add conss, 1 chg bounds, 28 chg sides, 1636 chg coeffs, 116 upgd conss, 0 impls, 928 clqs
(round 19, exhaustive) 28816 del vars, 683 del conss, 34 add conss, 1 chg bounds, 28 chg sides, 1648 chg coeffs, 116 upgd conss, 0 impls, 928 clqs
(round 20, exhaustive) 28816 del vars, 684 del conss, 34 add conss, 1 chg bounds, 28 chg sides, 1654 chg coeffs, 116 upgd conss, 0 impls, 928 clqs
(round 21, exhaustive) 28816 del vars, 684 del conss, 34 add conss, 1 chg bounds, 28 chg sides, 1663 chg coeffs, 116 upgd conss, 0 impls, 928 clqs
(round 22, exhaustive) 28820 del vars, 684 del conss, 34 add conss, 1 chg bounds, 28 chg sides, 1665 chg coeffs, 116 upgd conss, 0 impls, 924 clqs
(round 23, fast)       28825 del vars, 689 del conss, 34 add conss, 1 chg bounds, 28 chg sides, 1665 chg coeffs, 116 upgd conss, 0 impls, 919 clqs
(round 24, medium)     28826 del vars, 695 del conss, 38 add conss, 1 chg bounds, 33 chg sides, 1676 chg coeffs, 116 upgd conss, 0 impls, 921 clqs
(round 25, exhaustive) 28826 del vars, 696 del conss, 38 add conss, 1 chg bounds, 33 chg sides, 1679 chg coeffs, 116 upgd conss, 0 impls, 921 clqs
presolving (26 rounds: 26 fast, 16 medium, 11 exhaustive):
 28826 deleted vars, 696 deleted constraints, 38 added constraints, 1 tightened bounds, 0 added holes, 33 changed sides, 1680 changed coefficients
 0 implications, 921 cliques
presolved problem has 832 variables (832 bin, 0 int, 0 impl, 0 cont) and 1063 constraints
    142 constraints of type <knapsack>
    895 constraints of type <setppc>
     26 constraints of type <logicor>
Presolving Time: 7.00

 time | node  | left  |LP iter|LP it/n|mem/heur|mdpt |vars |cons |rows |cuts |sepa|confs|strbr|  dualbound   | primalbound  |  gap   | compl. 
 64.0s|     1 |     0 |  5648 |     - |  1238M |   0 | 832 |1063 | 736 |   0 |  0 | 129k|   0 | 1.467057e+04 | 1.467214e+04 |   0.01%| unknown
 64.0s|     1 |     0 |  5648 |     - |  1238M |   0 | 832 |1065 | 735 |   0 |  0 | 129k|   0 | 1.467057e+04 | 1.467214e+04 |   0.01%| unknown
 64.0s|     1 |     0 |  5661 |     - |  1238M |   0 | 832 |1013 | 745 |  10 |  1 | 129k|   0 | 1.467214e+04 | 1.467214e+04 |   0.00%| unknown
 64.0s|     1 |     0 |  5661 |     - |  1238M |   0 | 832 |1013 | 745 |  10 |  1 | 129k|   0 | 1.467214e+04 | 1.467214e+04 |   0.00%| unknown

SCIP Status        : problem is solved [optimal solution found]
Solving Time (sec) : 64.00
Solving Nodes      : 1 (total of 3 nodes in 3 runs)
Primal Bound       : +1.46721442838378e+04 (2 solutions)
Dual Bound         : +1.46721442838378e+04
Gap                : 0.00 %
  [linear] <auto_c_000080600>: <auto_v_000080168>[B] (+1) +<auto_v_000067203>[B] (+1) +<auto_v_000000008>[B] (+1) +<auto_v_000001200>[B] (+1) +<auto_v_000003400>[B] (+1) <= 4;
;
violation: right hand side is violated by 1
1/2 feasible solution given by solution candidate storage, new primal bound 1.811961e+04

presolving:
(round 1, fast)       400 del vars, 0 del conss, 0 add conss, 0 chg bounds, 0 chg sides, 0 chg coeffs, 0 upgd conss, 0 impls, 80600 clqs
(round 2, exhaustive) 400 del vars, 0 del conss, 0 add conss, 0 chg bounds, 0 chg sides, 0 chg coeffs, 80601 upgd conss, 0 impls, 80600 clqs
   (6.0s) probing: 51/159600 (0.0%) - 0 fixings, 0 aggregations, 0 implications, 0 bound changes
   (6.0s) probing aborted: 50/50 successive totally useless probings
   Deactivated symmetry handling methods, since SCIP was built without symmetry detector (SYM=none).
presolving (3 rounds: 3 fast, 2 medium, 2 exhaustive):
 400 deleted vars, 0 deleted constraints, 0 added constraints, 0 tightened bounds, 0 added holes, 0 changed sides, 0 changed coefficients
 0 implications, 80600 cliques
presolved problem has 159600 variables (159600 bin, 0 int, 0 impl, 0 cont) and 80601 constraints
  80600 constraints of type <setppc>
      1 constraints of type <logicor>
Presolving Time: 5.00
transformed 1/1 original solutions to the transformed problem space

 time | node  | left  |LP iter|LP it/n|mem/heur|mdpt |vars |cons |rows |cuts |sepa|confs|strbr|  dualbound   | primalbound  |  gap   | compl. 
 17.0s|     1 |     0 |   674 |     - |  1159M |   0 | 159k|  80k| 801 |   0 |  0 |  24 |   0 | 1.235582e+04 | 1.811961e+04 |  46.65%| unknown
 17.0s|     1 |     0 |  1066 |     - |  1159M |   0 | 159k|  80k| 950 | 149 |  1 |  24 |   0 | 1.433812e+04 | 1.811961e+04 |  26.37%| unknown
 20.0s|     1 |     0 |  1163 |     - |  1185M |   0 | 159k|  80k| 986 | 185 |  2 |  24 |   0 | 1.453133e+04 | 1.811961e+04 |  24.69%| unknown
 22.0s|     1 |     0 |  1168 |     - |  1194M |   0 | 159k|  80k| 988 | 187 |  3 |  24 |   0 | 1.454390e+04 | 1.811961e+04 |  24.59%| unknown
 24.0s|     1 |     0 |  1175 |     - |  1195M |   0 | 159k|  80k| 992 | 191 |  4 |  24 |   0 | 1.454390e+04 | 1.811961e+04 |  24.59%| unknown
 27.0s|     1 |     0 |  1209 |     - |  1198M |   0 | 159k|  80k|1008 | 207 |  5 |  24 |   0 | 1.455669e+04 | 1.811961e+04 |  24.48%| unknown
 29.0s|     1 |     0 |  1226 |     - |  1205M |   0 | 159k|  80k|1024 | 223 |  6 |  24 |   0 | 1.455963e+04 | 1.811961e+04 |  24.45%| unknown
 32.0s|     1 |     0 |  1264 |     - |  1212M |   0 | 159k|  80k|1032 | 231 |  7 |  24 |   0 | 1.458417e+04 | 1.811961e+04 |  24.24%| unknown
 35.0s|     1 |     0 |  1291 |     - |  1218M |   0 | 159k|  80k|1049 | 248 |  8 |  24 |   0 | 1.461013e+04 | 1.811961e+04 |  24.02%| unknown
 37.0s|     1 |     0 |  1299 |     - |  1225M |   0 | 159k|  80k|1053 | 252 |  9 |  24 |   0 | 1.461197e+04 | 1.811961e+04 |  24.01%| unknown
 39.0s|     1 |     0 |  1342 |     - |  1228M |   0 | 159k|  80k|1065 | 264 | 10 |  24 |   0 | 1.462726e+04 | 1.811961e+04 |  23.88%| unknown
 42.0s|     1 |     0 |  1367 |     - |  1242M |   0 | 159k|  80k|1036 | 275 | 11 |  24 |   0 | 1.463120e+04 | 1.811961e+04 |  23.84%| unknown
 43.0s|     1 |     0 |  1380 |     - |  1250M |   0 | 159k|  80k|1041 | 280 | 12 |  24 |   0 | 1.463313e+04 | 1.811961e+04 |  23.83%| unknown
 45.0s|     1 |     0 |  1414 |     - |  1253M |   0 | 159k|  80k|1055 | 294 | 13 |  24 |   0 | 1.464500e+04 | 1.811961e+04 |  23.73%| unknown
 46.0s|     1 |     0 |  1451 |     - |  1262M |   0 | 159k|  80k|1068 | 307 | 14 |  24 |   0 | 1.465181e+04 | 1.811961e+04 |  23.67%| unknown
 time | node  | left  |LP iter|LP it/n|mem/heur|mdpt |vars |cons |rows |cuts |sepa|confs|strbr|  dualbound   | primalbound  |  gap   | compl. 
 46.0s|     1 |     0 |  1474 |     - |  1263M |   0 | 159k|  80k|1073 | 312 | 15 |  24 |   0 | 1.465354e+04 | 1.811961e+04 |  23.65%| unknown
 47.0s|     1 |     0 |  1476 |     - |  1264M |   0 | 159k|  80k|1075 | 314 | 16 |  24 |   0 | 1.465354e+04 | 1.811961e+04 |  23.65%| unknown
 48.0s|     1 |     0 |  1480 |     - |  1264M |   0 | 159k|  80k|1060 | 317 | 17 |  24 |   0 | 1.465381e+04 | 1.811961e+04 |  23.65%| unknown
 49.0s|     1 |     0 |  1485 |     - |  1265M |   0 | 159k|  80k|1061 | 318 | 18 |  24 |   0 | 1.465437e+04 | 1.811961e+04 |  23.65%| unknown
 50.0s|     1 |     0 |  1497 |     - |  1265M |   0 | 159k|  80k|1065 | 322 | 19 |  24 |   0 | 1.465472e+04 | 1.811961e+04 |  23.64%| unknown
 50.0s|     1 |     0 |  1502 |     - |  1265M |   0 | 159k|  80k|1068 | 325 | 20 |  24 |   0 | 1.465472e+04 | 1.811961e+04 |  23.64%| unknown
 51.0s|     1 |     0 |  1505 |     - |  1265M |   0 | 159k|  80k|1070 | 327 | 21 |  24 |   0 | 1.465472e+04 | 1.811961e+04 |  23.64%| unknown
L82.0s|     1 |     0 |  5785 |     - |    alns|   0 | 159k|  80k|1070 | 327 | 23 |  24 |   0 | 1.465472e+04 | 1.697244e+04 |  15.82%| unknown
 82.0s|     1 |     0 |  5785 |     - |  1278M |   0 | 159k|  80k|1070 | 327 | 23 |  24 |   0 | 1.465472e+04 | 1.697244e+04 |  15.82%| unknown
 83.0s|     1 |     0 |  5792 |     - |  1278M |   0 | 159k|  80k|1072 | 329 | 24 |  24 |   0 | 1.465632e+04 | 1.697244e+04 |  15.80%| unknown
 83.0s|     1 |     0 |  5793 |     - |  1278M |   0 | 159k|  80k|1073 | 330 | 25 |  24 |   0 | 1.465632e+04 | 1.697244e+04 |  15.80%| unknown
 93.0s|     1 |     2 |  5793 |     - |  1281M |   0 | 159k|  80k|1073 | 330 | 25 |  24 |  31 | 1.465706e+04 | 1.697244e+04 |  15.80%| unknown
* 151s|    10 |     9 |  5936 | 491.4 |strongbr|   9 | 159k|  80k|1008 | 330 |  1 |  24 | 236 | 1.465706e+04 | 1.469231e+04 |   0.24%| unknown
* 167s|    15 |     7 |  6048 | 323.9 |strongbr|   9 | 159k|  80k|1008 | 330 |  1 | 145k| 292 | 1.465706e+04 | 1.467999e+04 |   0.16%|   3.23%
* 198s|    21 |     5 |  6199 | 234.3 |strongbr|   9 | 159k|  80k|1008 | 330 |  8 | 145k| 416 | 1.465706e+04 | 1.467731e+04 |   0.14%|   6.63%
 time | node  | left  |LP iter|LP it/n|mem/heur|mdpt |vars |cons |rows |cuts |sepa|confs|strbr|  dualbound   | primalbound  |  gap   | compl. 
* 231s|    28 |     4 |  6477 | 183.9 |strongbr|   9 | 159k|  80k|1008 | 330 |  2 | 145k| 534 | 1.465706e+04 | 1.467214e+04 |   0.10%|  18.69%

SCIP Status        : solving was interrupted [gap limit reached]
Solving Time (sec) : 376.00
Solving Nodes      : 52
Primal Bound       : +1.46721442838378e+04 (6 solutions)
Dual Bound         : +1.46714222207013e+04
Gap                : 0.00 %
  [linear] <auto_c_000080601>: <auto_v_000080008>[B] (+1) +<auto_v_000067400>[B] (+1) +<auto_v_000003200>[B] (+1) +<auto_v_000000003>[B] (+1) +<auto_v_000001368>[B] (+1) <= 4;
;
violation: right hand side is violated by 0.999999999999998
  [linear] <auto_c_000080601>: <auto_v_000080008>[B] (+1) +<auto_v_000067400>[B] (+1) +<auto_v_000003200>[B] (+1) +<auto_v_000000003>[B] (+1) +<auto_v_000001368>[B] (+1) <= 4;
;
violation: right hand side is violated by 1
  [linear] <auto_c_000080601>: <auto_v_000080008>[B] (+1) +<auto_v_000067400>[B] (+1) +<auto_v_000003200>[B] (+1) +<auto_v_000000003>[B] (+1) +<auto_v_000001368>[B] (+1) <= 4;
;
violation: right hand side is violated by 1
  [linear] <auto_c_000080601>: <auto_v_000080008>[B] (+1) +<auto_v_000067400>[B] (+1) +<auto_v_000003200>[B] (+1) +<auto_v_000000003>[B] (+1) +<auto_v_000001368>[B] (+1) <= 4;
;
violation: right hand side is violated by 1
2/6 feasible solutions given by solution candidate storage, new primal bound 1.697244e+04

presolving:
(round 1, fast)       400 del vars, 0 del conss, 0 add conss, 0 chg bounds, 0 chg sides, 0 chg coeffs, 0 upgd conss, 0 impls, 80600 clqs
(round 2, exhaustive) 400 del vars, 0 del conss, 0 add conss, 0 chg bounds, 0 chg sides, 0 chg coeffs, 80602 upgd conss, 0 impls, 80600 clqs
   (6.0s) probing: 51/159600 (0.0%) - 0 fixings, 0 aggregations, 0 implications, 0 bound changes
   (6.0s) probing aborted: 50/50 successive totally useless probings
   Deactivated symmetry handling methods, since SCIP was built without symmetry detector (SYM=none).
presolving (3 rounds: 3 fast, 2 medium, 2 exhaustive):
 400 deleted vars, 0 deleted constraints, 0 added constraints, 0 tightened bounds, 0 added holes, 0 changed sides, 0 changed coefficients
 0 implications, 80600 cliques
presolved problem has 159600 variables (159600 bin, 0 int, 0 impl, 0 cont) and 80602 constraints
  80600 constraints of type <setppc>
      2 constraints of type <logicor>
Presolving Time: 5.00
transformed 2/2 original solutions to the transformed problem space

 time | node  | left  |LP iter|LP it/n|mem/heur|mdpt |vars |cons |rows |cuts |sepa|confs|strbr|  dualbound   | primalbound  |  gap   | compl. 
 18.0s|     1 |     0 |   674 |     - |  1207M |   0 | 159k|  80k| 802 |   0 |  0 |  24 |   0 | 1.235582e+04 | 1.697244e+04 |  37.36%| unknown
 18.0s|     1 |     0 |  1066 |     - |  1207M |   0 | 159k|  80k| 951 | 149 |  1 |  24 |   0 | 1.433812e+04 | 1.697244e+04 |  18.37%| unknown
 21.0s|     1 |     0 |  1182 |     - |  1236M |   0 | 159k|  80k| 987 | 185 |  2 |  24 |   0 | 1.453133e+04 | 1.697244e+04 |  16.80%| unknown
 23.0s|     1 |     0 |  1187 |     - |  1242M |   0 | 159k|  80k| 989 | 187 |  3 |  24 |   0 | 1.454390e+04 | 1.697244e+04 |  16.70%| unknown
 25.0s|     1 |     0 |  1201 |     - |  1245M |   0 | 159k|  80k| 999 | 197 |  4 |  24 |   0 | 1.454390e+04 | 1.697244e+04 |  16.70%| unknown
 27.0s|     1 |     0 |  1203 |     - |  1250M |   0 | 159k|  80k|1000 | 198 |  5 |  24 |   0 | 1.454390e+04 | 1.697244e+04 |  16.70%| unknown
 30.0s|     1 |     0 |  1232 |     - |  1251M |   0 | 159k|  80k|1016 | 214 |  6 |  24 |   0 | 1.456209e+04 | 1.697244e+04 |  16.55%| unknown
 32.0s|     1 |     0 |  1255 |     - |  1257M |   0 | 159k|  80k|1028 | 226 |  7 |  24 |   0 | 1.456358e+04 | 1.697244e+04 |  16.54%| unknown
 34.0s|     1 |     0 |  1316 |     - |  1264M |   0 | 159k|  80k|1039 | 237 |  8 |  24 |   0 | 1.459966e+04 | 1.697244e+04 |  16.25%| unknown
 36.0s|     1 |     0 |  1356 |     - |  1272M |   0 | 159k|  80k|1059 | 257 |  9 |  24 |   0 | 1.462494e+04 | 1.697244e+04 |  16.05%| unknown
 38.0s|     1 |     0 |  1369 |     - |  1273M |   0 | 159k|  80k|1062 | 260 | 10 |  24 |   0 | 1.462576e+04 | 1.697244e+04 |  16.04%| unknown
 40.0s|     1 |     0 |  1398 |     - |  1283M |   0 | 159k|  80k|1037 | 273 | 11 |  24 |   0 | 1.463270e+04 | 1.697244e+04 |  15.99%| unknown
 41.0s|     1 |     0 |  1407 |     - |  1289M |   0 | 159k|  80k|1043 | 279 | 12 |  24 |   0 | 1.463270e+04 | 1.697244e+04 |  15.99%| unknown
 42.0s|     1 |     0 |  1440 |     - |  1289M |   0 | 159k|  80k|1059 | 295 | 13 |  24 |   0 | 1.464914e+04 | 1.697244e+04 |  15.86%| unknown
 43.0s|     1 |     0 |  1452 |     - |  1289M |   0 | 159k|  80k|1066 | 302 | 14 |  24 |   0 | 1.465087e+04 | 1.697244e+04 |  15.85%| unknown
 time | node  | left  |LP iter|LP it/n|mem/heur|mdpt |vars |cons |rows |cuts |sepa|confs|strbr|  dualbound   | primalbound  |  gap   | compl. 
 44.0s|     1 |     0 |  1475 |     - |  1289M |   0 | 159k|  80k|1070 | 306 | 15 |  24 |   0 | 1.465252e+04 | 1.697244e+04 |  15.83%| unknown
 45.0s|     1 |     0 |  1490 |     - |  1289M |   0 | 159k|  80k|1072 | 308 | 16 |  24 |   0 | 1.465326e+04 | 1.697244e+04 |  15.83%| unknown
 46.0s|     1 |     0 |  1518 |     - |  1289M |   0 | 159k|  80k|1056 | 313 | 17 |  24 |   0 | 1.465546e+04 | 1.697244e+04 |  15.81%| unknown
 47.0s|     1 |     0 |  1527 |     - |  1290M |   0 | 159k|  80k|1058 | 315 | 18 |  24 |   0 | 1.465625e+04 | 1.697244e+04 |  15.80%| unknown
 48.0s|     1 |     0 |  1533 |     - |  1290M |   0 | 159k|  80k|1062 | 319 | 19 |  24 |   0 | 1.465663e+04 | 1.697244e+04 |  15.80%| unknown
 49.0s|     1 |     0 |  1534 |     - |  1290M |   0 | 159k|  80k|1063 | 320 | 20 |  24 |   0 | 1.465663e+04 | 1.697244e+04 |  15.80%| unknown
 49.0s|     1 |     0 |  1541 |     - |  1293M |   0 | 159k|  80k|1064 | 321 | 21 |  24 |   0 | 1.465663e+04 | 1.697244e+04 |  15.80%| unknown
L69.0s|     1 |     0 |  4572 |     - |    alns|   0 | 159k|  80k|1064 | 321 | 23 |  24 |   0 | 1.465663e+04 | 1.541918e+04 |   5.20%| unknown
 70.0s|     1 |     0 |  4572 |     - |  1301M |   0 | 159k|  80k|1064 | 321 | 23 |  24 |   0 | 1.465663e+04 | 1.541918e+04 |   5.20%| unknown
 70.0s|     1 |     0 |  4572 |     - |  1303M |   0 | 159k|  80k|1064 | 321 | 23 |  24 |   0 | 1.465663e+04 | 1.541918e+04 |   5.20%| unknown
(run 1, node 1) restarting after 23662 global fixings of integer variables

(restart) converted 156 cuts from the global cut pool into linear constraints

presolving:
(round 1, fast)       23662 del vars, 11 del conss, 0 add conss, 0 chg bounds, 0 chg sides, 159 chg coeffs, 0 upgd conss, 0 impls, 68637 clqs
(round 2, exhaustive) 23662 del vars, 11 del conss, 0 add conss, 0 chg bounds, 0 chg sides, 159 chg coeffs, 156 upgd conss, 0 impls, 68637 clqs
presolving (3 rounds: 3 fast, 2 medium, 2 exhaustive):
 23662 deleted vars, 56 deleted constraints, 0 added constraints, 0 tightened bounds, 0 added holes, 0 changed sides, 159 changed coefficients
 0 implications, 68637 cliques
presolved problem has 135938 variables (135938 bin, 0 int, 0 impl, 0 cont) and 68751 constraints
    109 constraints of type <knapsack>
  68637 constraints of type <setppc>
      5 constraints of type <logicor>
Presolving Time: 7.00
transformed 3/3 original solutions to the transformed problem space

 time | node  | left  |LP iter|LP it/n|mem/heur|mdpt |vars |cons |rows |cuts |sepa|confs|strbr|  dualbound   | primalbound  |  gap   | compl. 
 73.0s|     1 |     0 |  5520 |     - |  1390M |   0 | 135k|  68k| 958 |   0 |  0 |  24 |   0 | 1.465663e+04 | 1.541918e+04 |   5.20%| unknown
 75.0s|     1 |     0 |  6071 |     - |  1399M |   0 | 135k|  68k|1087 | 129 |  1 |  24 |   0 | 1.465663e+04 | 1.541918e+04 |   5.20%| unknown
 77.0s|     1 |     0 |  6165 |     - |  1399M |   0 | 135k|  68k|1113 | 155 |  2 |  24 |   0 | 1.465663e+04 | 1.541918e+04 |   5.20%| unknown
 78.0s|     1 |     0 |  6165 |     - |  1399M |   0 | 135k|  68k|1113 | 155 |  2 |  24 |   0 | 1.465663e+04 | 1.541918e+04 |   5.20%| unknown
 79.0s|     1 |     0 |  6167 |     - |  1399M |   0 | 135k|  68k|1115 | 157 |  3 |  24 |   0 | 1.465663e+04 | 1.541918e+04 |   5.20%| unknown
 81.0s|     1 |     0 |  6173 |     - |  1399M |   0 | 135k|  68k|1118 | 160 |  4 |  24 |   0 | 1.465792e+04 | 1.541918e+04 |   5.19%| unknown
 81.0s|     1 |     0 |  6173 |     - |  1399M |   0 | 135k|  68k|1118 | 160 |  4 |  24 |   0 | 1.465792e+04 | 1.541918e+04 |   5.19%| unknown
 82.0s|     1 |     0 |  6174 |     - |  1399M |   0 | 135k|  68k|1119 | 161 |  5 |  24 |   0 | 1.465792e+04 | 1.541918e+04 |   5.19%| unknown
 84.0s|     1 |     0 |  6185 |     - |  1400M |   0 | 135k|  68k|1121 | 163 |  6 |  24 |   0 | 1.465953e+04 | 1.541918e+04 |   5.18%| unknown
 84.0s|     1 |     0 |  6185 |     - |  1400M |   0 | 135k|  68k|1121 | 163 |  6 |  24 |   0 | 1.465953e+04 | 1.541918e+04 |   5.18%| unknown
 86.0s|     1 |     0 |  6202 |     - |  1404M |   0 | 135k|  68k|1127 | 169 |  7 |  24 |   0 | 1.466164e+04 | 1.541918e+04 |   5.17%| unknown
 86.0s|     1 |     0 |  6202 |     - |  1404M |   0 | 135k|  68k|1127 | 169 |  7 |  24 |   0 | 1.466164e+04 | 1.541918e+04 |   5.17%| unknown
 87.0s|     1 |     0 |  6204 |     - |  1404M |   0 | 135k|  68k|1129 | 171 |  8 |  24 |   0 | 1.466170e+04 | 1.541918e+04 |   5.17%| unknown
 88.0s|     1 |     0 |  6204 |     - |  1404M |   0 | 135k|  68k|1129 | 171 |  8 |  24 |   0 | 1.466170e+04 | 1.541918e+04 |   5.17%| unknown
 88.0s|     1 |     0 |  6214 |     - |  1404M |   0 | 135k|  68k|1130 | 172 |  9 |  24 |   0 | 1.466204e+04 | 1.541918e+04 |   5.16%| unknown
 time | node  | left  |LP iter|LP it/n|mem/heur|mdpt |vars |cons |rows |cuts |sepa|confs|strbr|  dualbound   | primalbound  |  gap   | compl. 
 89.0s|     1 |     0 |  6214 |     - |  1404M |   0 | 135k|  68k|1130 | 172 |  9 |  24 |   0 | 1.466204e+04 | 1.541918e+04 |   5.16%| unknown
 90.0s|     1 |     0 |  6229 |     - |  1404M |   0 | 135k|  68k|1132 | 174 | 10 |  24 |   0 | 1.466228e+04 | 1.541918e+04 |   5.16%| unknown
 90.0s|     1 |     0 |  6229 |     - |  1404M |   0 | 135k|  68k|1132 | 174 | 10 |  24 |   0 | 1.466228e+04 | 1.541918e+04 |   5.16%| unknown
 91.0s|     1 |     0 |  6232 |     - |  1404M |   0 | 135k|  68k|1135 | 177 | 11 |  24 |   0 | 1.466260e+04 | 1.541918e+04 |   5.16%| unknown
 92.0s|     1 |     0 |  6232 |     - |  1404M |   0 | 135k|  68k|1135 | 177 | 11 |  24 |   0 | 1.466260e+04 | 1.541918e+04 |   5.16%| unknown
 93.0s|     1 |     0 |  6247 |     - |  1404M |   0 | 135k|  68k|1008 | 179 | 12 |  24 |   0 | 1.466361e+04 | 1.541918e+04 |   5.15%| unknown
 94.0s|     1 |     0 |  6247 |     - |  1404M |   0 | 135k|  68k|1008 | 179 | 12 |  24 |   0 | 1.466361e+04 | 1.541918e+04 |   5.15%| unknown
 94.0s|     1 |     0 |  6249 |     - |  1405M |   0 | 135k|  68k|1010 | 181 | 13 |  24 |   0 | 1.466361e+04 | 1.541918e+04 |   5.15%| unknown
 96.0s|     1 |     0 |  6265 |     - |  1405M |   0 | 135k|  68k|1012 | 183 | 14 |  24 |   0 | 1.466414e+04 | 1.541918e+04 |   5.15%| unknown
 96.0s|     1 |     0 |  6265 |     - |  1405M |   0 | 135k|  68k|1012 | 183 | 14 |  24 |   0 | 1.466414e+04 | 1.541918e+04 |   5.15%| unknown
 97.0s|     1 |     0 |  6270 |     - |  1405M |   0 | 135k|  68k|1013 | 184 | 15 |  24 |   0 | 1.466419e+04 | 1.541918e+04 |   5.15%| unknown
 97.0s|     1 |     0 |  6270 |     - |  1405M |   0 | 135k|  68k|1013 | 184 | 15 |  24 |   0 | 1.466419e+04 | 1.541918e+04 |   5.15%| unknown
 98.0s|     1 |     0 |  6280 |     - |  1405M |   0 | 135k|  68k|1014 | 185 | 16 |  24 |   0 | 1.466487e+04 | 1.541918e+04 |   5.14%| unknown
 98.0s|     1 |     0 |  6280 |     - |  1405M |   0 | 135k|  68k|1014 | 185 | 16 |  24 |   0 | 1.466487e+04 | 1.541918e+04 |   5.14%| unknown
 99.0s|     1 |     0 |  6281 |     - |  1405M |   0 | 135k|  68k|1015 | 186 | 17 |  24 |   0 | 1.466487e+04 | 1.541918e+04 |   5.14%| unknown
 time | node  | left  |LP iter|LP it/n|mem/heur|mdpt |vars |cons |rows |cuts |sepa|confs|strbr|  dualbound   | primalbound  |  gap   | compl. 
  126s|     1 |     2 |  7455 |     - |  1407M |   0 | 135k|  68k|1015 | 186 | 17 |  24 |  21 | 1.466627e+04 | 1.541918e+04 |   5.13%| unknown
* 140s|     4 |     3 |  7531 |1070.2 |strongbr|   2 | 135k|  68k| 993 | 186 |  1 |  24 |  71 | 1.466668e+04 | 1.467671e+04 |   0.07%| unknown
* 140s|     4 |     3 |  7531 |1070.2 |strongbr|   2 | 135k|  68k| 993 | 186 |  1 |  24 |  74 | 1.466668e+04 | 1.467637e+04 |   0.07%| unknown
* 163s|     4 |     3 |  7542 |1073.0 |strongbr|   2 | 135k|  68k| 994 | 187 |  8 |  39 | 165 | 1.466668e+04 | 1.467325e+04 |   0.04%| unknown

SCIP Status        : problem is solved [optimal solution found]
Solving Time (sec) : 174.00
Solving Nodes      : 9 (total of 10 nodes in 2 runs)
Primal Bound       : +1.46732527757236e+04 (6 solutions)
Dual Bound         : +1.46732527757236e+04
Gap                : 0.00 %
Trying to solve problem with DFJ2 version 2.0 Method...
64.0
Cicle:  1
440.0
Cicle:  2
614.0
Route:  [[0, 200], [1, 121], [2, 206], [3, 289], [4, 280], [5, 322], [6, 63], [7, 334], [8, 0], [9, 188], [10, 99], [11, 42], [12, 172], [13, 352], [14, 29], [15, 372], [16, 185], [17, 304], [18, 12], [19, 273], [20, 300], [21, 65], [22, 123], [23, 239], [24, 28], [25, 327], [26, 217], [27, 377], [28, 162], [29, 20], [30, 241], [31, 58], [32, 104], [33, 160], [34, 190], [35, 183], [36, 74], [37, 43], [38, 294], [39, 108], [40, 342], [41, 297], [42, 375], [43, 127], [44, 255], [45, 324], [46, 122], [47, 252], [48, 57], [49, 82], [50, 237], [51, 13], [52, 397], [53, 399], [54, 238], [55, 272], [56, 178], [57, 135], [58, 223], [59, 147], [60, 332], [61, 328], [62, 320], [63, 159], [64, 83], [65, 256], [66, 16], [67, 319], [68, 315], [69, 363], [70, 40], [71, 153], [72, 381], [73, 218], [74, 219], [75, 68], [76, 283], [77, 197], [78, 120], [79, 336], [80, 69], [81, 325], [82, 318], [83, 380], [84, 158], [85, 371], [86, 277], [87, 251], [88, 305], [89, 257], [90, 148], [91, 156], [92, 134], [93, 240], [94, 52], [95, 102], [96, 379], [97, 287], [98, 103], [99, 344], [100, 349], [101, 382], [102, 107], [103, 110], [104, 170], [105, 81], [106, 195], [107, 353], [108, 167], [109, 343], [110, 385], [111, 245], [112, 141], [113, 391], [114, 303], [115, 389], [116, 281], [117, 390], [118, 35], [119, 246], [120, 374], [121, 264], [122, 205], [123, 47], [124, 30], [125, 26], [126, 184], [127, 7], [128, 119], [129, 310], [130, 125], [131, 331], [132, 248], [133, 171], [134, 265], [135, 48], [136, 55], [137, 176], [138, 1], [139, 73], [140, 279], [141, 61], [142, 333], [143, 137], [144, 174], [145, 9], [146, 370], [147, 292], [148, 192], [149, 323], [150, 5], [151, 295], [152, 126], [153, 278], [154, 204], [155, 358], [156, 338], [157, 306], [158, 189], [159, 106], [160, 44], [161, 312], [162, 24], [163, 316], [164, 50], [165, 19], [166, 25], [167, 54], [168, 3], [169, 296], [170, 293], [171, 266], [172, 163], [173, 199], [174, 228], [175, 222], [176, 143], [177, 308], [178, 95], [179, 151], [180, 144], [181, 232], [182, 85], [183, 270], [184, 152], [185, 116], [186, 86], [187, 139], [188, 145], [189, 307], [190, 22], [191, 155], [192, 337], [193, 32], [194, 386], [195, 117], [196, 368], [197, 207], [198, 76], [199, 330], [200, 8], [201, 284], [202, 357], [203, 191], [204, 66], [205, 46], [206, 360], [207, 77], [208, 271], [209, 203], [210, 356], [211, 72], [212, 341], [213, 201], [214, 226], [215, 335], [216, 181], [217, 169], [218, 96], [219, 230], [220, 175], [221, 114], [222, 249], [223, 244], [224, 260], [225, 227], [226, 56], [227, 79], [228, 258], [229, 345], [230, 290], [231, 89], [232, 216], [233, 394], [234, 93], [235, 154], [236, 285], [237, 164], [238, 37], [239, 97], [240, 80], [241, 124], [242, 339], [243, 87], [244, 362], [245, 39], [246, 38], [247, 317], [248, 351], [249, 268], [250, 275], [251, 243], [252, 67], [253, 361], [254, 4], [255, 168], [256, 366], [257, 236], [258, 161], [259, 140], [260, 101], [261, 220], [262, 235], [263, 111], [264, 208], [265, 254], [266, 187], [267, 88], [268, 27], [269, 98], [270, 34], [271, 131], [272, 274], [273, 367], [274, 202], [275, 396], [276, 350], [277, 347], [278, 118], [279, 259], [280, 225], [281, 215], [282, 182], [283, 210], [284, 213], [285, 346], [286, 314], [287, 150], [288, 53], [289, 146], [290, 369], [291, 321], [292, 109], [293, 149], [294, 33], [295, 179], [296, 62], [297, 383], [298, 384], [299, 136], [300, 14], [301, 45], [302, 193], [303, 221], [304, 393], [305, 23], [306, 129], [307, 84], [308, 262], [309, 302], [310, 250], [311, 186], [312, 348], [313, 194], [314, 224], [315, 340], [316, 267], [317, 354], [318, 209], [319, 395], [320, 11], [321, 276], [322, 71], [323, 60], [324, 301], [325, 105], [326, 157], [327, 166], [328, 253], [329, 92], [330, 388], [331, 115], [332, 234], [333, 309], [334, 90], [335, 128], [336, 376], [337, 398], [338, 299], [339, 70], [340, 6], [341, 229], [342, 113], [343, 326], [344, 59], [345, 378], [346, 177], [347, 311], [348, 180], [349, 112], [350, 373], [351, 132], [352, 51], [353, 359], [354, 247], [355, 242], [356, 233], [357, 91], [358, 365], [359, 298], [360, 2], [361, 31], [362, 10], [363, 133], [364, 17], [365, 64], [366, 21], [367, 165], [368, 94], [369, 142], [370, 214], [371, 282], [372, 392], [373, 291], [374, 78], [375, 130], [376, 387], [377, 36], [378, 212], [379, 263], [380, 173], [381, 211], [382, 231], [383, 18], [384, 138], [385, 269], [386, 329], [387, 261], [388, 355], [389, 313], [390, 41], [391, 286], [392, 15], [393, 49], [394, 198], [395, 100], [396, 75], [397, 196], [398, 364], [399, 288]]
A Solution was found
Objective value: 14673.3
Problem solved in 7632 iterations
Problem solved in 10 nodes
Final Route Configuration succesfully created at:
data/routes/rd400.csv
